c CNF file corresponding to a (partial) station packing problem.
p cnf 4485 229
1 2 3 4 5 6 7 8 9 10 11 12 13 14 0
-1 -2 0
-1 -3 0
-1 -4 0
-1 -5 0
-1 -6 0
-1 -7 0
-1 -8 0
-1 -9 0
-1 -10 0
-1 -11 0
-1 -12 0
-1 -13 0
-1 -14 0
-2 -3 0
-2 -4 0
-2 -5 0
-2 -6 0
-2 -7 0
-2 -8 0
-2 -9 0
-2 -10 0
-2 -11 0
-2 -12 0
-2 -13 0
-2 -14 0
-3 -4 0
-3 -5 0
-3 -6 0
-3 -7 0
-3 -8 0
-3 -9 0
-3 -10 0
-3 -11 0
-3 -12 0
-3 -13 0
-3 -14 0
-4 -5 0
-4 -6 0
-4 -7 0
-4 -8 0
-4 -9 0
-4 -10 0
-4 -11 0
-4 -12 0
-4 -13 0
-4 -14 0
-5 -6 0
-5 -7 0
-5 -8 0
-5 -9 0
-5 -10 0
-5 -11 0
-5 -12 0
-5 -13 0
-5 -14 0
-6 -7 0
-6 -8 0
-6 -9 0
-6 -10 0
-6 -11 0
-6 -12 0
-6 -13 0
-6 -14 0
-7 -8 0
-7 -9 0
-7 -10 0
-7 -11 0
-7 -12 0
-7 -13 0
-7 -14 0
-8 -9 0
-8 -10 0
-8 -11 0
-8 -12 0
-8 -13 0
-8 -14 0
-9 -10 0
-9 -11 0
-9 -12 0
-9 -13 0
-9 -14 0
-10 -11 0
-10 -12 0
-10 -13 0
-10 -14 0
-11 -12 0
-11 -13 0
-11 -14 0
-12 -13 0
-12 -14 0
-13 -14 0
4469 4470 4471 4472 4473 4474 4475 4476 4477 4478 4479 4480 4481 4482 4483 4484 4485 0
-4469 -4470 0
-4469 -4471 0
-4469 -4472 0
-4469 -4473 0
-4469 -4474 0
-4469 -4475 0
-4469 -4476 0
-4469 -4477 0
-4469 -4478 0
-4469 -4479 0
-4469 -4480 0
-4469 -4481 0
-4469 -4482 0
-4469 -4483 0
-4469 -4484 0
-4469 -4485 0
-4470 -4471 0
-4470 -4472 0
-4470 -4473 0
-4470 -4474 0
-4470 -4475 0
-4470 -4476 0
-4470 -4477 0
-4470 -4478 0
-4470 -4479 0
-4470 -4480 0
-4470 -4481 0
-4470 -4482 0
-4470 -4483 0
-4470 -4484 0
-4470 -4485 0
-4471 -4472 0
-4471 -4473 0
-4471 -4474 0
-4471 -4475 0
-4471 -4476 0
-4471 -4477 0
-4471 -4478 0
-4471 -4479 0
-4471 -4480 0
-4471 -4481 0
-4471 -4482 0
-4471 -4483 0
-4471 -4484 0
-4471 -4485 0
-4472 -4473 0
-4472 -4474 0
-4472 -4475 0
-4472 -4476 0
-4472 -4477 0
-4472 -4478 0
-4472 -4479 0
-4472 -4480 0
-4472 -4481 0
-4472 -4482 0
-4472 -4483 0
-4472 -4484 0
-4472 -4485 0
-4473 -4474 0
-4473 -4475 0
-4473 -4476 0
-4473 -4477 0
-4473 -4478 0
-4473 -4479 0
-4473 -4480 0
-4473 -4481 0
-4473 -4482 0
-4473 -4483 0
-4473 -4484 0
-4473 -4485 0
-4474 -4475 0
-4474 -4476 0
-4474 -4477 0
-4474 -4478 0
-4474 -4479 0
-4474 -4480 0
-4474 -4481 0
-4474 -4482 0
-4474 -4483 0
-4474 -4484 0
-4474 -4485 0
-4475 -4476 0
-4475 -4477 0
-4475 -4478 0
-4475 -4479 0
-4475 -4480 0
-4475 -4481 0
-4475 -4482 0
-4475 -4483 0
-4475 -4484 0
-4475 -4485 0
-4476 -4477 0
-4476 -4478 0
-4476 -4479 0
-4476 -4480 0
-4476 -4481 0
-4476 -4482 0
-4476 -4483 0
-4476 -4484 0
-4476 -4485 0
-4477 -4478 0
-4477 -4479 0
-4477 -4480 0
-4477 -4481 0
-4477 -4482 0
-4477 -4483 0
-4477 -4484 0
-4477 -4485 0
-4478 -4479 0
-4478 -4480 0
-4478 -4481 0
-4478 -4482 0
-4478 -4483 0
-4478 -4484 0
-4478 -4485 0
-4479 -4480 0
-4479 -4481 0
-4479 -4482 0
-4479 -4483 0
-4479 -4484 0
-4479 -4485 0
-4480 -4481 0
-4480 -4482 0
-4480 -4483 0
-4480 -4484 0
-4480 -4485 0
-4481 -4482 0
-4481 -4483 0
-4481 -4484 0
-4481 -4485 0
-4482 -4483 0
-4482 -4484 0
-4482 -4485 0
-4483 -4484 0
-4483 -4485 0
-4484 -4485 0
